p tw 360 5401 7 
1 8 
1 11 
2 9 
2 10 
2 12 
3 7 
3 10 
3 31 
4 8 
4 9 
4 32 
5 7 
5 9 
5 131 
6 8 
6 10 
6 132 
11 17 
11 18 
12 19 
12 20 
13 17 
13 20 
13 211 
14 18 
14 19 
14 212 
15 17 
15 19 
15 221 
16 18 
16 20 
16 222 
21 27 
21 28 
21 71 
22 29 
22 30 
22 72 
23 27 
23 30 
23 191 
24 28 
24 29 
24 192 
25 27 
25 29 
25 311 
26 28 
26 30 
26 312 
31 37 
31 38 
32 39 
32 40 
33 37 
33 40 
33 101 
34 38 
34 39 
34 102 
35 37 
35 39 
35 111 
36 38 
36 40 
36 112 
41 47 
41 48 
41 181 
42 49 
42 50 
42 182 
43 47 
43 50 
43 223 
44 48 
44 49 
44 224 
45 47 
45 49 
45 251 
46 48 
46 50 
46 252 
51 57 
51 58 
51 253 
52 59 
52 60 
52 254 
53 57 
53 60 
53 301 
54 58 
54 59 
54 302 
55 57 
55 59 
55 341 
56 58 
56 60 
56 342 
61 67 
61 68 
61 183 
62 69 
62 70 
62 184 
63 67 
63 70 
63 201 
64 68 
64 69 
64 202 
65 67 
65 69 
65 241 
66 68 
66 70 
66 242 
71 77 
71 78 
72 79 
72 80 
73 77 
73 80 
73 141 
74 78 
74 79 
74 142 
75 77 
75 79 
75 351 
76 78 
76 80 
76 352 
81 87 
81 88 
81 193 
82 89 
82 90 
82 194 
83 87 
83 90 
83 291 
84 88 
84 89 
84 292 
85 87 
85 89 
85 331 
86 88 
86 90 
86 332 
91 97 
91 98 
91 213 
92 99 
92 100 
92 214 
93 97 
93 100 
93 303 
94 98 
94 99 
94 304 
95 97 
95 99 
95 321 
96 98 
96 100 
96 322 
101 107 
101 108 
102 109 
102 110 
103 107 
103 110 
103 261 
104 108 
104 109 
104 262 
105 107 
105 109 
105 343 
106 108 
106 110 
106 344 
111 117 
111 118 
112 119 
112 120 
113 117 
113 120 
113 231 
114 118 
114 119 
114 232 
115 117 
115 119 
115 353 
116 118 
116 120 
116 354 
121 127 
121 128 
121 171 
122 129 
122 130 
122 172 
123 127 
123 130 
123 185 
124 128 
124 129 
124 186 
125 127 
125 129 
125 281 
126 128 
126 130 
126 282 
131 137 
131 138 
132 139 
132 140 
133 137 
133 140 
133 143 
134 138 
134 139 
134 144 
135 137 
135 139 
135 263 
136 138 
136 140 
136 264 
141 147 
141 148 
142 149 
142 150 
143 147 
143 150 
144 148 
144 149 
145 147 
145 149 
145 243 
146 148 
146 150 
146 244 
151 157 
151 158 
151 203 
152 159 
152 160 
152 204 
153 157 
153 160 
153 293 
154 158 
154 159 
154 294 
155 157 
155 159 
155 333 
156 158 
156 160 
156 334 
161 167 
161 168 
161 233 
162 169 
162 170 
162 234 
163 167 
163 170 
163 305 
164 168 
164 169 
164 306 
165 167 
165 169 
165 323 
166 168 
166 170 
166 324 
171 177 
171 178 
172 179 
172 180 
173 177 
173 180 
173 313 
174 178 
174 179 
174 314 
175 177 
175 179 
175 335 
176 178 
176 180 
176 336 
181 187 
181 188 
182 189 
182 190 
183 187 
183 190 
184 188 
184 189 
185 187 
185 189 
186 188 
186 190 
191 197 
191 198 
192 199 
192 200 
193 197 
193 200 
194 198 
194 199 
195 197 
195 199 
195 283 
196 198 
196 200 
196 284 
201 207 
201 208 
202 209 
202 210 
203 207 
203 210 
204 208 
204 209 
205 207 
205 209 
205 245 
206 208 
206 210 
206 246 
211 217 
211 218 
212 219 
212 220 
213 217 
213 220 
214 218 
214 219 
215 217 
215 219 
215 265 
216 218 
216 220 
216 266 
221 227 
221 228 
222 229 
222 230 
223 227 
223 230 
224 228 
224 229 
225 227 
225 229 
225 271 
226 228 
226 230 
226 272 
231 237 
231 238 
232 239 
232 240 
233 237 
233 240 
234 238 
234 239 
235 237 
235 239 
235 325 
236 238 
236 240 
236 326 
241 247 
241 248 
242 249 
242 250 
243 247 
243 250 
244 248 
244 249 
245 247 
245 249 
246 248 
246 250 
251 257 
251 258 
252 259 
252 260 
253 257 
253 260 
254 258 
254 259 
255 257 
255 259 
255 345 
256 258 
256 260 
256 346 
261 267 
261 268 
262 269 
262 270 
263 267 
263 270 
264 268 
264 269 
265 267 
265 269 
266 268 
266 270 
271 277 
271 278 
272 279 
272 280 
273 277 
273 280 
273 285 
274 278 
274 279 
274 286 
275 277 
275 279 
275 355 
276 278 
276 280 
276 356 
281 287 
281 288 
282 289 
282 290 
283 287 
283 290 
284 288 
284 289 
285 287 
285 289 
286 288 
286 290 
291 297 
291 298 
292 299 
292 300 
293 297 
293 300 
294 298 
294 299 
295 297 
295 299 
295 315 
296 298 
296 300 
296 316 
301 307 
301 308 
302 309 
302 310 
303 307 
303 310 
304 308 
304 309 
305 307 
305 309 
306 308 
306 310 
311 317 
311 318 
312 319 
312 320 
313 317 
313 320 
314 318 
314 319 
315 317 
315 319 
316 318 
316 320 
321 327 
321 328 
322 329 
322 330 
323 327 
323 330 
324 328 
324 329 
325 327 
325 329 
326 328 
326 330 
331 337 
331 338 
332 339 
332 340 
333 337 
333 340 
334 338 
334 339 
335 337 
335 339 
336 338 
336 340 
341 347 
341 348 
342 349 
342 350 
343 347 
343 350 
344 348 
344 349 
345 347 
345 349 
346 348 
346 350 
351 357 
351 358 
352 359 
352 360 
353 357 
353 360 
354 358 
354 359 
355 357 
355 359 
356 358 
356 360 
